
Gurobi 9.0.0 (mac64, gurobi_cl) logging started Wed Oct 28 17:38:27 2020

Using license file /Users/zuck016/gurobi.lic
Set parameter TokenServer to value leghorn.emsl.pnl.gov
Set parameter LogFile to value gurobi.log

Gurobi 9.0.0 (mac64, gurobi_cl) logging started Wed Oct 28 17:50:22 2020

Using license file /Users/zuck016/gurobi.lic
Set parameter TokenServer to value leghorn.emsl.pnl.gov
Set parameter LogFile to value gurobi.log

Gurobi 9.0.0 (mac64, gurobi_cl) logging started Wed Oct 28 17:51:06 2020

Using license file /Users/zuck016/gurobi.lic
Set parameter MIPGap to value 0.05
Set parameter TokenServer to value leghorn.emsl.pnl.gov
Set parameter LogFile to value gurobi.log

Gurobi Optimizer version 9.0.0 build v9.0.0rc2 (mac64)
Copyright (c) 2019, Gurobi Optimization, LLC


ERROR 10003: Unable to open file ' ' for input


Gurobi 9.0.0 (mac64, gurobi_cl) logging started Wed Oct 28 17:53:58 2020

Using license file /Users/zuck016/gurobi.lic
Set parameter TimeLimit to value 12000
Set parameter MIPGap to value 0.05
Set parameter TokenServer to value leghorn.emsl.pnl.gov
Set parameter LogFile to value gurobi.log
Set parameter PoolSolutions to value 100
Set parameter PoolSearchMode to value 2
Set parameter PoolGap to value 0.0001

Gurobi Optimizer version 9.0.0 build v9.0.0rc2 (mac64)
Copyright (c) 2019, Gurobi Optimization, LLC

Error reading LP format file carnival_VN103vsMock.lp at line 3
LP format file must begin with a keyword
Neighboring tokens: " enter Problem Minimize Obj: 3.52798765049773 "


ERROR 10012: Unable to read file


Gurobi 9.0.0 (mac64, gurobi_cl) logging started Wed Oct 28 17:54:19 2020

Using license file /Users/zuck016/gurobi.lic
Set parameter TimeLimit to value 12000
Set parameter MIPGap to value 0.05
Set parameter TokenServer to value leghorn.emsl.pnl.gov
Set parameter LogFile to value gurobi.log
Set parameter PoolSolutions to value 100
Set parameter PoolSearchMode to value 2
Set parameter PoolGap to value 0.0001

Gurobi Optimizer version 9.0.0 build v9.0.0rc2 (mac64)
Copyright (c) 2019, Gurobi Optimization, LLC

Error reading LP format file carnival_VN103vsMock.lp at line 291425
Token contains more than 255 characters
Neighboring tokens: " c291423: xb13712_1 - xb20593_1 + B_MT_ND1_MT_ND2_MT_ND3_MT_ND4_MT_ND5_MT_ND6_NDUFA1_NDUFA10_NDUFA11_NDUFA12_NDUFA13_NDUFA2_NDUFA3_NDUFA4_NDUFA5_NDUFA6_NDUFA7_NDUFA8_NDUFA9_NDUFAB1_NDUFB1_NDUFB10_NDUFB11_NDUFB2_NDUFB3_NDUFB4_NDUFB5_NDUFB6_NDUFB7_NDUFB8_NDUFB9_NDUFC1_NDUFC2_NDUFS1_NDUFS2_ND "


ERROR 10012: Unable to read file


Gurobi 9.0.0 (mac64, gurobi_cl) logging started Wed Oct 28 17:56:11 2020

Using license file /Users/zuck016/gurobi.lic
Set parameter TimeLimit to value 12000
Set parameter MIPGap to value 0.05
Set parameter TokenServer to value leghorn.emsl.pnl.gov
Set parameter LogFile to value gurobi.log
Set parameter PoolSolutions to value 100
Set parameter PoolSearchMode to value 2
Set parameter PoolGap to value 0.0001

Gurobi Optimizer version 9.0.0 build v9.0.0rc2 (mac64)
Copyright (c) 2019, Gurobi Optimization, LLC

Error reading LP format file carnival_VN103vsMock.lp at line 349465
Token contains more than 255 characters
Neighboring tokens: " c349464: 101 xb71752_1 + dist_MAPT - dist_MT_ND1_MT_ND2_MT_ND3_MT_ND4_MT_ND5_MT_ND6_NDUFA1_NDUFA10_NDUFA11_NDUFA12_NDUFA13_NDUFA2_NDUFA3_NDUFA4_NDUFA5_NDUFA6_NDUFA7_NDUFA8_NDUFA9_NDUFAB1_NDUFB1_NDUFB10_NDUFB11_NDUFB2_NDUFB3_NDUFB4_NDUFB5_NDUFB6_NDUFB7_NDUFB8_NDUFB9_NDUFC1_NDUFC2_NDUFS1_NDUFS2 "


ERROR 10012: Unable to read file


Gurobi 9.0.0 (mac64, gurobi_cl) logging started Wed Oct 28 17:57:07 2020

Using license file /Users/zuck016/gurobi.lic
Set parameter TimeLimit to value 12000
Set parameter MIPGap to value 0.05
Set parameter TokenServer to value leghorn.emsl.pnl.gov
Set parameter LogFile to value gurobi.log
Set parameter PoolSolutions to value 100
Set parameter PoolSearchMode to value 2
Set parameter PoolGap to value 0.0001

Gurobi Optimizer version 9.0.0 build v9.0.0rc2 (mac64)
Copyright (c) 2019, Gurobi Optimization, LLC

Read LP format model from file carnival_VN103vsMock.lp
Reading time = 1.03 seconds
Obj: 406646 rows, 142747 columns, 1131288 nonzeros
Optimize a model with 406646 rows, 142747 columns and 1131288 nonzeros
Model fingerprint: 0x0ea35c65
Variable types: 6881 continuous, 135866 integer (122054 binary)
Coefficient statistics:
  Matrix range     [1e+00, 1e+02]
  Objective range  [2e-01, 4e+00]
  Bounds range     [1e+00, 1e+02]
  RHS range        [1e+00, 1e+02]
Presolve removed 175202 rows and 14171 columns (presolve time = 7s) ...
Presolve removed 180725 rows and 17325 columns (presolve time = 11s) ...
Presolve removed 180725 rows and 17325 columns
Presolve time: 11.47s
Presolved: 225921 rows, 125422 columns, 787270 nonzeros
Variable types: 6881 continuous, 118541 integer (116130 binary)
Found heuristic solution: objective 81.1681274

Deterministic concurrent LP optimizer: primal and dual simplex
Showing first log only...


Root simplex log...

Iteration    Objective       Primal Inf.    Dual Inf.      Time
       0    4.9048640e+02   1.494075e+04   3.300239e+11     14s
Concurrent spin time: 0.00s

Solved with dual simplex

Root relaxation: objective 1.203164e+01, 15323 iterations, 0.99 seconds
Total elapsed time = 20.25s

    Nodes    |    Current Node    |     Objective Bounds      |     Work
 Expl Unexpl |  Obj  Depth IntInf | Incumbent    BestBd   Gap | It/Node Time

     0     0   12.03164    0  183   81.16813   12.03164  85.2%     -   33s
     0     0   13.13164    0  491   81.16813   13.13164  83.8%     -   53s
H    0     0                      56.8577403   13.13164  76.9%     -   53s
     0     0   14.40705    0  429   56.85774   14.40705  74.7%     -   53s
     0     0   15.30705    0  937   56.85774   15.30705  73.1%     -   56s
H    0     0                      54.3339534   15.30705  71.8%     -   57s
     0     0   15.30705    0  937   54.33395   15.30705  71.8%     -   57s
     0     0   15.90705    0 1485   54.33395   15.90705  70.7%     -   62s
H    0     0                      33.9715159   15.90705  53.2%     -   62s
     0     0   15.90705    0 1135   33.97152   15.90705  53.2%     -   62s
     0     0   16.40705    0 1104   33.97152   16.40705  51.7%     -   66s
     0     0   16.40705    0  894   33.97152   16.40705  51.7%     -   66s
     0     0   16.72289    0  453   33.97152   16.72289  50.8%     -   69s
H    0     0                      33.2474801   16.72289  49.7%     -   71s
     0     0   16.72289    0  453   33.24748   16.72289  49.7%     -   71s
     0     0   17.20705    0 1417   33.24748   17.20705  48.2%     -   74s
H    0     0                      28.8776371   17.20705  40.4%     -   75s
H    0     0                      23.4881668   17.20705  26.7%     -   75s
     0     0   17.20705    0 1291   23.48817   17.20705  26.7%     -   76s
     0     0   17.30705    0  696   23.48817   17.30705  26.3%     -   79s
     0     0   17.30705    0  684   23.48817   17.30705  26.3%     -   84s
     0     0   17.30705    0  617   23.48817   17.30705  26.3%     -   86s
     0     0   17.30705    0  619   23.48817   17.30705  26.3%     -   87s
     0     0   17.30705    0  110   23.48817   17.30705  26.3%     -   97s
H    0     0                      20.8737880   17.30705  17.1%     -  128s
     0     0   17.30705    0  109   20.87379   17.30705  17.1%     -  128s
     0     0   17.30705    0   32   20.87379   17.30705  17.1%     -  133s
     0     0   17.30705    0   32   20.87379   17.30705  17.1%     -  137s
     0     0   17.30705    0   32   20.87379   17.30705  17.1%     -  139s
     0     2   17.30705    0   32   20.87379   17.30705  17.1%     -  141s
    31    38   17.30705    7   36   20.87379   17.30705  17.1%   432  146s
    72    82   17.30705   12   92   20.87379   17.30705  17.1%   389  150s
   141   167   17.50705   21   34   20.87379   17.30705  17.1%   271  155s
H  149   167                      19.8737880   17.30705  12.9%   257  155s
   332   348   17.70705   44   32   19.87379   17.30705  12.9%   153  161s
   471   499   17.90705   64   40   19.87379   17.30705  12.9%   114  165s
H  531   556                      19.6737880   17.30705  12.0%   103  167s
   657   672   17.70705   78   34   19.67379   17.30705  12.0%  95.7  172s
   806   839   17.90705   96   32   19.67379   17.30705  12.0%  89.4  177s
   934   913   18.90750  112   94   19.67379   17.30705  12.0%  80.0  180s
  1141  1073   19.30750  160   26   19.67379   17.30705  12.0%  69.5  187s
  1226  1174   19.30750  169   24   19.67379   17.30705  12.0%  68.0  190s
  1466  1389   19.30750  196   24   19.67379   17.30705  12.0%  59.7  197s
  1580  1483   19.30750  212   24   19.67379   17.30705  12.0%  58.2  200s
  1838  1750   19.50750  236   38   19.67379   17.30705  12.0%  54.7  208s
  1994  1888   19.30750  252   24   19.67379   17.30705  12.0%  51.7  212s
  2154  2013   19.50750  278   68   19.67379   17.30705  12.0%  50.5  216s
  2292  2120   19.58764  296  555   19.67379   17.30705  12.0%  51.1  221s
  2566  2280   19.50750  371   30   19.67379   17.30705  12.0%  46.9  226s
  2765  2448   19.50750  398   28   19.67379   17.30705  12.0%  45.5  230s
  2992  2545   19.50750  434   28   19.67379   17.30705  12.0%  45.6  235s
  3141  2725   19.50750  456   48   19.67379   17.30705  12.0%  46.0  241s
  3363  2879   18.30705   21  170   19.67379   17.30705  12.0%  45.1  247s
  3567  3149   17.50705   86   32   19.67379   17.30705  12.0%  44.9  254s
  3868  3425 infeasible  137        19.67379   17.30705  12.0%  42.9  260s
  4187  3788   17.90705  225   28   19.67379   17.30705  12.0%  41.2  265s
  4567  3599   18.61641  244   32   19.67379   17.30705  12.0%  39.0  296s
  4569  3420   18.10705  204   69   19.67379   17.30705  12.0%  39.0  308s
  4570  3421   19.19689  164   66   19.67379   17.30705  12.0%  39.0  318s
  4571  3422   17.30705   10   78   19.67379   17.30705  12.0%  39.0  321s
  4572  3422   17.50705   82   37   19.67379   17.30705  12.0%  39.0  351s
H 4573  3252                      19.3070469   17.30705  10.4%  39.0  365s
H 4573  3089                      19.1070469   17.30705  9.42%  39.0  374s
  4575  3090   17.90705   79   53   19.10705   17.30705  9.42%  39.0  376s
  4576  2936   19.10705  153   22   19.10705   17.30705  9.42%  38.9  388s
  4577  2790   17.70705  129   26   19.10705   17.30705  9.42%  38.9  390s
  4578  2790   17.90705   87   22   19.10705   17.30705  9.42%  38.9  398s
  4579  2791   19.01641  362   33   19.10705   17.30705  9.42%  38.9  400s
H 4579  2652                      18.9070469   17.30705  8.46%  38.9  403s
  4580  2653   17.30705   56   20   18.90705   17.30705  8.46%  38.9  409s
  4581  2653   17.70705  221   22   18.90705   17.30705  8.46%  38.9  411s
  4582  2654   17.40705    8   28   18.90705   17.40705  7.93%  38.9  419s
  4583  2655   18.90705  114   30   18.90705   17.40705  7.93%  38.9  422s
  4584  2655   17.50705   43   12   18.90705   17.50705  7.40%  38.9  430s
  4586  2657   18.10705  103   12   18.90705   17.50705  7.40%  38.9  440s
  4588  2658   18.50705  336   12   18.90705   17.50705  7.40%  38.8  449s
  4589  2659   17.70705   83   16   18.90705   17.50705  7.40%  38.8  452s
H 4589  2525                      18.7070469   17.50705  6.41%  38.8  454s
  4590  2525   18.67897  249   12   18.70705   17.50705  6.41%  38.8  460s
  4592  2527   18.30705  241   16   18.70705   17.50705  6.41%  38.8  470s
  4594  2528   17.90705  190   14   18.70705   17.50705  6.41%  38.8  475s
  4597  2404   17.50705   79   32   18.70705   17.50705  6.41%  43.8  483s
  4599  2405   18.50705  330   70   18.70705   17.50705  6.41%  43.8  492s
  4600  2406   18.70705  226  118   18.70705   17.50705  6.41%  43.8  497s
  4601  2407   18.30705  188  111   18.70705   17.50705  6.41%  43.8  500s
  4602  2407   17.60705  113   31   18.70705   17.50705  6.41%  43.8  534s
  4603  2408   18.70705  178   37   18.70705   17.50705  6.41%  43.8  543s
  4604  2409   18.30705  178   14   18.70705   17.50705  6.41%  43.8  551s
  4606  2410   18.10705  155   32   18.70705   17.50705  6.41%  43.8  562s
  4608  2411   17.70705  100   45   18.70705   17.50705  6.41%  43.7  569s
  4609  2412   18.70705  214   41   18.70705   17.50705  6.41%  43.7  571s
  4610  2413   17.90705  116   32   18.70705   17.50705  6.41%  43.7  579s
  4611  2413   18.30705   81   57   18.70705   17.50705  6.41%  43.7  581s
  4612  2414   18.70705  370   70   18.70705   17.50705  6.41%  43.7  587s
  4614  2415   17.70705   26   54   18.70705   17.50705  6.41%  43.7  596s
  4616  2417   18.70705  293   46   18.70705   17.50705  6.41%  43.7  604s
  4617  2417   18.50705  251   29   18.70705   17.50705  6.41%  43.6  606s
  4618  2418   17.50705   99   22   18.70705   17.50705  6.41%  43.6  611s
  4620  2073   18.30705  109   22   18.70705   17.50705  6.41%  43.6  617s
  4621  2077   17.50705   24   37   18.70705   17.50705  6.41%  48.2  624s
  4623  2079   17.50705   25   37   18.70705   17.50705  6.41%  48.1  627s
  4627  2083   17.50705   26   31   18.70705   17.50705  6.41%  48.3  633s
  4633  2086   17.50705   27   31   18.70705   17.50705  6.41%  48.5  638s
  4639  2087   17.82812   27   60   18.70705   17.50705  6.41%  48.9  641s
  4658  2098   17.50705   29   41   18.70705   17.50705  6.41%  50.0  646s
  4689  2114   17.50705   32   43   18.70705   17.50705  6.41%  50.8  650s
  4724  1832   17.50705   34   35   18.70705   17.50705  6.41%  53.1  655s
H 4773  1691                      18.5070469   17.51180  5.38%  54.4  658s
  4794  1612   17.51233   39   47   18.50705   17.51233  5.37%  54.5  664s
  4809  1625   17.51312   40   46   18.50705   17.51233  5.37%  54.6  665s
  4881  1241   18.21641   42   72   18.50705   17.51420  5.36%  55.2  671s
  4919  1205   17.51497   45   37   18.50705   17.51497  5.36%  56.1  675s
  5016   933   17.51497   51   31   18.50705   17.51497  5.36%  56.8  680s
  5145   730 infeasible   57        18.50705   17.51955  5.34%  57.4  688s
  5245   729   17.52848   36   70   18.50705   17.52164  5.32%  57.6  693s
  5289   722   17.57371   40   52   18.50705   17.52164  5.32%  57.7  695s
H 5352   600                      18.3070469   17.52164  4.29%  58.6  698s
  5367   632   17.70705   41   58   18.30705   17.52164  4.29%  58.9  701s
  5485   632   17.70705   57   36   18.30705   17.52164  4.29%  59.7  707s
  5626   662   17.70705   89   26   18.30705   17.52164  4.29%  60.3  713s
  5664   721   17.76705   95   40   18.30705   17.52164  4.29%  60.7  715s
  5809   847   17.90705  102   30   18.30705   17.52164  4.29%  61.3  722s
  5898   943   17.90705  112   22   18.30705   17.52164  4.29%  61.3  726s
  6094  1117   18.10705  124  132   18.30705   17.52164  4.29%  61.8  732s
  6211  1178   18.10705  170   66   18.30705   17.52164  4.29%  61.8  738s
  6302  1252   18.10705  200   26   18.30705   17.52164  4.29%  62.3  741s
  6386  1336   18.30705  212   22   18.30705   17.52164  4.29%  62.8  746s
  6499  1490   17.90705   48   34   18.30705   17.52164  4.29%  62.5  750s
H 6607  1071                      18.1070469   17.52164  3.23%  62.1  750s
  6744  1111   17.70705   39   57   18.10705   17.65705  2.49%  62.9  757s
  6810  1222   17.71101   50   53   18.10705   17.67108  2.41%  64.0  760s
  6957  1466 infeasible   59        18.10705   17.70705  2.21%  64.4  769s
  7259  1825   17.76705   54   33   18.10705   17.70705  2.21%  64.2  780s
  7694  2293   17.90705  115   22   18.10705   17.70705  2.21%  62.1  791s
  8269  2806   17.90705  135   38   18.10705   17.70705  2.21%  60.2  802s
  8895  3086   17.80705   67   74   18.10705   17.70705  2.21%  59.2  817s
  9260  3552   17.90705   92   38   18.10705   17.70705  2.21%  59.3  830s
  9940  3959   17.90705  137   28   18.10705   17.70705  2.21%  58.4  844s
 10657  4477   17.70705   96   40   18.10705   17.70705  2.21%  58.6  859s
 11353  5183   17.70705   61   26   18.10705   17.70705  2.21%  57.8  874s
 12219  5864   18.09769   67   59   18.10705   17.70705  2.21%  56.1  889s
 13179  6531   17.90705  194   64   18.10705   17.70705  2.21%  55.0  916s
 14000  7076   17.84038  118   46   18.10705   17.70705  2.21%  53.8  931s
 14964  7515     cutoff  129        18.10705   17.70705  2.21%  53.5  946s
 15873  7984   17.70705  100   42   18.10705   17.70705  2.21%  54.2  960s
 16856  8633     cutoff  123        18.10705   17.70705  2.21%  54.4  975s
 17919  9040     cutoff  139        18.10705   17.70705  2.21%  54.5  992s
 18853  9150   17.75705  107   48   18.10705   17.70705  2.21%  54.6 1009s
 19567  9420     cutoff  114        18.10705   17.70705  2.21%  56.8 1028s
 20366  9758 infeasible  105        18.10705   17.70705  2.21%  57.9 1054s
 20945 10546   17.70705  121   34   18.10705   17.70705  2.21%  57.8 1072s
 22197 10751   18.10705  171   13   18.10705   17.70705  2.21%  56.8 1088s
 23051 11210     cutoff  102        18.10705   17.70705  2.21%  58.8 1106s
 24047 11996   17.90705   89   38   18.10705   17.70705  2.21%  58.6 1127s
 25287 12592     cutoff  122        18.10705   17.70705  2.21%  57.7 1142s
 26498 11963   17.76705  121   32   18.10705   17.70705  2.21%  56.8 1386s
 26500 11964   17.90705   87   69   18.10705   17.70705  2.21%  56.8 1396s
 26501 11965   17.90705  109   64   18.10705   17.70705  2.21%  56.8 1412s
 26502 11966   17.90705   78   86   18.10705   17.70705  2.21%  56.8 1418s
 26503 11966   17.90705   78   16   18.10705   17.70705  2.21%  56.8 1438s
 26504 11967   17.90705  127   33   18.10705   17.70705  2.21%  56.8 1450s
 26505 11968   17.90705   93   23   18.10705   17.70705  2.21%  56.8 1463s
 26506 11968   18.10705  123   43   18.10705   17.70705  2.21%  56.8 1472s
 26507 11969   17.90705  125   21   18.10705   17.70705  2.21%  56.8 1491s
 26508 11970   17.90705  150   45   18.10705   17.70705  2.21%  56.8 1499s
 26509 11970   17.90705  110   16   18.10705   17.70705  2.21%  56.8 1511s
 26510 11971   17.90705  161   47   18.10705   17.70705  2.21%  56.8 1519s
 26511 11972   17.90705  121   23   18.10705   17.70705  2.21%  56.8 1533s
 26512 11972   17.90705  106   35   18.10705   17.70705  2.21%  56.8 1542s
 26513 11973   17.90705  132   31   18.10705   17.70705  2.21%  56.8 1554s
 26514 11974   17.90705  110  102   18.10705   17.70705  2.21%  56.8 1564s
 26515 11375   18.10705   84   74   18.10705   17.70705  2.21%  56.8 1576s
 26516 11376   17.90705  135   91   18.10705   17.70705  2.21%  56.8 1586s
 26517 11377   17.90705  107   57   18.10705   17.70705  2.21%  56.8 1599s
 26518 11377   17.90705  138   80   18.10705   17.70705  2.21%  56.8 1609s
 26519 11378   17.90705  120  115   18.10705   17.70705  2.21%  56.8 1624s
 26520 11379   17.90705  114   65   18.10705   17.70705  2.21%  56.8 1633s
 26521 11379   17.90705   60   67   18.10705   17.70705  2.21%  56.8 1648s
 26522 11380   17.90705   83   73   18.10705   17.70705  2.21%  56.8 1657s
 26523 11381   17.90705  124   94   18.10705   17.70705  2.21%  56.8 1670s
 26524 11381   17.90705   84  117   18.10705   17.70705  2.21%  56.8 1680s
 26525 11382   18.10705  109   59   18.10705   17.70705  2.21%  56.8 1696s
 26526 11383   17.90705  125   61   18.10705   17.70705  2.21%  56.8 1704s
 26527 11383   17.90705   78   65   18.10705   17.70705  2.21%  56.8 1716s
 26528 11384   18.10705  156   85   18.10705   17.70705  2.21%  56.8 1726s
 26529 11385   18.10705   44   90   18.10705   17.70705  2.21%  56.8 1743s
 26530 11385   17.90705  127   93   18.10705   17.70705  2.21%  56.8 1752s
 26531 11386   17.90705  114   70   18.10705   17.70705  2.21%  56.8 1763s
 26532 11387   17.90705  131   80   18.10705   17.70705  2.21%  56.7 1771s
 26533 11387   17.90705  130   83   18.10705   17.70705  2.21%  56.7 1783s
 26534 11388   18.10705  121   98   18.10705   17.70705  2.21%  56.7 1793s
 26535 11389   17.90705   94   82   18.10705   17.70705  2.21%  56.7 1807s
 26536 11389   17.90705  133   84   18.10705   17.70705  2.21%  56.7 1815s
 26537 11390   18.10705   90   77   18.10705   17.70705  2.21%  56.7 1825s
 26538 11391   17.90705   86   84   18.10705   17.70705  2.21%  56.7 1834s
 26539 11391   17.90705  127   84   18.10705   17.70705  2.21%  56.7 1844s
 26540 11392   17.90705  102   86   18.10705   17.70705  2.21%  56.7 1853s
 26541 11393   17.90705   58   77   18.10705   17.70705  2.21%  56.7 1864s
 26542 11393   17.90705  118   90   18.10705   17.70705  2.21%  56.7 1873s
 26543 11394   17.90705  118   85   18.10705   17.70705  2.21%  56.7 1884s
 26544 11395   17.90705  170  106   18.10705   17.70705  2.21%  56.7 1892s
 26545 11395   17.90705  119   79   18.10705   17.70705  2.21%  56.7 1904s
 26546 11396   17.90705   62   79   18.10705   17.70705  2.21%  56.7 1912s
 26547 11397   17.90705  164   87   18.10705   17.70705  2.21%  56.7 1928s
 26548 11397   17.90705  106   88   18.10705   17.70705  2.21%  56.7 1936s
 26549 11398   17.90705   92   82   18.10705   17.70705  2.21%  56.7 1947s
 26550 11399   18.10705  120   93   18.10705   17.70705  2.21%  56.7 1954s
 26551 11399   18.10705  102   79   18.10705   17.70705  2.21%  56.7 1968s
 26552 11400   17.90705  170   82   18.10705   17.70705  2.21%  56.7 1978s
 26553 11401   18.10705  144   99   18.10705   17.70705  2.21%  56.7 1993s
 26554 11401   17.90705   87  121   18.10705   17.70705  2.21%  56.7 2003s
 26555 11402   18.10705  125   37   18.10705   17.70705  2.21%  56.7 2021s
 26556 11403   17.80705   36   37   18.10705   17.70705  2.21%  56.7 2030s
 26557 11403   17.90705   80   87   18.10705   17.71615  2.16%  56.7 2043s
 26558 11404   17.90705  140   80   18.10705   17.72243  2.12%  56.7 2052s
 26559 11405   17.90705   88   52   18.10705   17.72705  2.10%  56.7 2063s
 26560 11405   17.90705   82   85   18.10705   17.72827  2.09%  56.7 2072s
 26561 11406   17.90705  155   87   18.10705   17.72940  2.09%  56.7 2083s
 26562 11407   17.90705  163   94   18.10705   17.72952  2.08%  56.7 2093s
 26563 11407   17.90705  110   95   18.10705   17.72985  2.08%  56.7 2106s
 26564 11408   17.90705   96   95   18.10705   17.73144  2.07%  56.7 2116s
 26565 11409   18.10705  109   78   18.10705   17.73251  2.07%  56.7 2128s
 26566 11409   17.90705   90   85   18.10705   17.74100  2.02%  56.7 2138s
 26567 11410   17.90705  145   57   18.10705   17.74705  1.99%  56.7 2153s
 26568 11411   18.10705  120   70   18.10705   17.74705  1.99%  56.7 2162s
 26569 11411   18.00705  150   96   18.10705   17.74786  1.98%  56.7 2177s
 26570 11412   17.90705  115   88   18.10705   17.74794  1.98%  56.7 2186s
 26571 11413   17.90705  136   65   18.10705   17.74807  1.98%  56.7 2200s
 26572 11413   17.90705  133   79   18.10705   17.74807  1.98%  56.7 2209s
 26573 11414   18.10705  128   80   18.10705   17.74807  1.98%  56.7 2224s
 26574 11415   17.90705  113   82   18.10705   17.74807  1.98%  56.7 2234s
 26575 11415   17.90705   38   77   18.10705   17.74807  1.98%  56.7 2248s
 26576 11416   18.10705  117   82   18.10705   17.74807  1.98%  56.7 2256s
 26577 11417   17.90705  121   88   18.10705   17.75023  1.97%  56.7 2270s
 26578 11417   17.90705   85   92   18.10705   17.75130  1.96%  56.7 2280s
 26579 11418   17.90705  142   80   18.10705   17.75779  1.93%  56.6 2293s
 26580 11419   18.10705   56   74   18.10705   17.76159  1.91%  56.6 2304s
 26581 11419   17.87848   67   77   18.10705   17.76542  1.89%  56.6 2317s
 26582 11420   18.10705  140   88   18.10705   17.76563  1.89%  56.6 2327s
 26583 11421   18.10705  126   94   18.10705   17.76566  1.89%  56.6 2343s
 26584 11421   17.90705   91  115   18.10705   17.76627  1.88%  56.6 2353s
 26585 11422   17.90705  104   92   18.10705   17.76760  1.87%  56.6 2365s
 26586 11423   18.00705  140  100   18.10705   17.76760  1.87%  56.6 2375s
 26587 11423   17.90705  125   85   18.10705   17.77081  1.86%  56.6 2392s
 26588 11424   17.90705   82   87   18.10705   17.77112  1.86%  56.6 2401s
 26589 11425   18.10705   72  101   18.10705   17.77211  1.85%  56.6 2418s
 26590 11425   18.10705   94  109   18.10705   17.77211  1.85%  56.6 2429s
 26591 11426   17.90705   80  111   18.10705   17.77211  1.85%  56.6 2444s
 26592 11427   17.90705  166  108   18.10705   17.77243  1.85%  56.6 2454s
 26593 11427   17.90705  103  100   18.10705   17.77534  1.83%  56.6 2468s
 26594 11428   17.90705  132   80   18.10705   17.77764  1.82%  56.6 2477s
 26595 11429   18.00705  100   64   18.10705   17.78324  1.79%  56.6 2493s
 26596 11429   18.10705  168   76   18.10705   17.78482  1.78%  56.6 2502s
 26597 11430   17.90705  131   37   18.10705   17.78705  1.77%  56.6 2517s
 26598 11431   17.78705  121   87   18.10705   17.78705  1.77%  56.6 2527s
 26599 11431   18.10705  150   75   18.10705   17.78705  1.77%  56.6 2544s
 26600 11432   17.90705   87   69   18.10705   17.78705  1.77%  56.6 2553s
 26601 11433   17.90705  109   72   18.10705   17.78705  1.77%  56.6 2569s
 26602 11433   17.90705   78   72   18.10705   17.78705  1.77%  56.6 2580s
 26603 11434   17.90705   78   99   18.10705   17.79737  1.71%  56.6 2597s
 26604 11435   17.90705  127  102   18.10705   17.79777  1.71%  56.6 2608s
 26605 11435   17.90705   93  101   18.10705   17.79829  1.71%  56.6 2622s
 26606 11436   18.10705  123   94   18.10705   17.79861  1.70%  56.6 2635s
 26607 11437   17.90705  125   73   18.10705   17.80080  1.69%  56.6 2651s
 26608 11437   17.90705  150   90   18.10705   17.80482  1.67%  56.6 2662s
 26609 11438   17.90705  110   85   18.10705   17.80705  1.66%  56.6 2678s
 26610 11439   17.90705  161   81   18.10705   17.80705  1.66%  56.6 2681s
 26611 11439   17.90705  121  100   18.10705   17.81130  1.63%  56.6 2689s
 26612 11440   17.90705  106  124   18.10705   17.81338  1.62%  56.6 2693s
 26613 11441   17.90705  132  103   18.10705   17.81474  1.61%  56.6 2704s
 26614 11441   17.90705  110  116   18.10705   17.81577  1.61%  56.6 2708s
 26615 11442   18.10705   84  107   18.10705   17.81995  1.59%  56.6 2717s
 26616 11443   17.90705  135  117   18.10705   17.81999  1.59%  56.6 2720s
 26617 11443   17.90705  107  101   18.10705   17.82029  1.58%  56.6 2731s
 26619 11445   17.90705  120  120   18.10705   17.82137  1.58%  56.6 2744s
 26620 11445   17.90705  114  118   18.10705   17.82163  1.58%  56.6 2747s
 26621 11446   17.90705   60  123   18.10705   17.82173  1.58%  56.6 2759s
 26622 11447   17.90705   83  129   18.10705   17.82173  1.58%  56.6 2762s
 26623 11447   17.90705  124  123   18.10705   17.82173  1.58%  56.6 2772s
 26624 11448   17.90705   84  145   18.10705   17.82194  1.57%  56.6 2776s
 26625 11449   18.10705  109  134   18.10705   17.82195  1.57%  56.6 2784s
 26626 11449   17.90705  125  139   18.10705   17.82196  1.57%  56.5 2787s
 26627 11450   17.90705   78  137   18.10705   17.82437  1.56%  56.5 2798s
 26628 11451   18.10705  156  138   18.10705   17.82440  1.56%  56.5 2802s
 26629 11451   18.10705   44  112   18.10705   17.83065  1.53%  56.5 2809s
 26630 11452   17.90705  127  128   18.10705   17.83114  1.52%  56.5 2813s
 26631 11453   17.90705  114  112   18.10705   17.83360  1.51%  56.5 2821s
 26633 11454   17.90705  130  110   18.10705   17.83408  1.51%  56.5 2832s
 26634 11455   18.10705  121  127   18.10705   17.83410  1.51%  56.5 2835s
 26635 11455   17.90705   94  106   18.10705   17.84101  1.47%  56.5 2846s
 26637 11457   18.10705   90  125   18.10705   17.84124  1.47%  56.5 2862s
 26638 11457   17.90705   86  111   18.10705   17.84173  1.47%  56.5 2866s
 26639 11458   17.90705  127  111   18.10705   17.84240  1.46%  56.5 2876s
 26640 11459   17.90705  102  113   18.10705   17.84323  1.46%  56.5 2881s
 26641 11459   17.90705   58  144   18.10705   17.84335  1.46%  56.5 2890s
 26643 11461   17.90705  118  120   18.10705   17.84572  1.44%  56.5 2904s
 26644 11461   17.90705  170  127   18.10705   17.84640  1.44%  56.5 2908s
 26645 11462   17.90705  119  136   18.10705   17.84692  1.44%  56.5 2914s
 26646 11463   17.90705   62  140   18.10705   17.84714  1.44%  56.5 2917s
 26647 11463   17.90705  164  130   18.10705   17.84831  1.43%  56.5 2928s
 26648 11464   17.90705  106  135   18.10705   17.84862  1.43%  56.5 2932s
 26649 11465   17.90705   92  126   18.10705   17.84931  1.42%  56.5 2942s
 26650 11465   18.10705  120  135   18.10705   17.85175  1.41%  56.5 2947s
 26651 11466   18.10705  102  130   18.10705   17.85236  1.41%  56.5 2957s
 26652 11467   17.90705  170  127   18.10705   17.85276  1.40%  56.5 2961s
 26653 11467   18.10705  144  132   18.10705   17.85279  1.40%  56.5 2969s
 26654 11468   17.90705   87  152   18.10705   17.85280  1.40%  56.5 2972s
 26655 11469   18.10705  125  139   18.10705   17.85386  1.40%  56.5 2983s
 26656 11469   17.85386   36  139   18.10705   17.85386  1.40%  56.5 2987s
 26657 11470   17.90705   80  135   18.10705   17.85488  1.39%  56.5 2995s
 26659 11471   17.90705   88  132   18.10705   17.85606  1.39%  56.5 3009s
 26660 11472   17.90705   82  132   18.10705   17.85606  1.39%  56.5 3012s
 26661 11473   17.90705  155  142   18.10705   17.85655  1.38%  56.5 3024s
 26662 11473   17.90705  163  130   18.10705   17.85683  1.38%  56.5 3028s
 26663 11474   17.90705  110  133   18.10705   17.85685  1.38%  56.5 3038s
 26664 11475   17.90705   96  139   18.10705   17.85685  1.38%  56.5 3042s
 26665 11475   18.10705  109  143   18.10705   17.85685  1.38%  56.5 3053s
 26666 11476   17.90705   90  149   18.10705   17.85685  1.38%  56.5 3056s
 26667 11477   17.90705  145  143   18.10705   17.85697  1.38%  56.5 3068s
 26668 11477   18.10705  120  141   18.10705   17.85724  1.38%  56.5 3071s
 26669 11478   18.00705  150  137   18.10705   17.85734  1.38%  56.5 3083s
 26670 11479   17.90705  115  133   18.10705   17.85738  1.38%  56.5 3086s
 26671 11479   17.90705  136  127   18.10705   17.85743  1.38%  56.5 3101s
 26673 11481   18.10705  128  121   18.10705   17.85857  1.37%  56.4 3116s
 26675 11482   17.90705   38  128   18.10705   17.85879  1.37%  56.4 3130s
 26677 11483   17.90705  121  131   18.10705   17.85893  1.37%  56.4 3144s
 26678 11484   17.90705   85  150   18.10705   17.85894  1.37%  56.4 3148s
 26679 11485   17.90705  142  139   18.10705   17.85898  1.37%  56.4 3159s
 26680 11485   18.10705   56  139   18.10705   17.85898  1.37%  56.4 3162s
 26681 11486   17.87848   67  135   18.10705   17.85898  1.37%  56.4 3173s
 26682 11487   18.10705  140  145   18.10705   17.85899  1.37%  56.4 3176s
 26683 11487   18.10705  126  135   18.10705   17.85961  1.37%  56.4 3191s
 26685 11489   17.90705  104  125   18.10705   17.86004  1.36%  56.4 3202s
 26687 11490   17.90705  125  126   18.10705   17.86049  1.36%  56.4 3213s
 26688 11491   17.90705   82  128   18.10705   17.86054  1.36%  56.4 3216s
 26689 11491   18.10705   72  125   18.10705   17.86054  1.36%  56.4 3225s
 26691 11493   17.90705   80  131   18.10705   17.86054  1.36%  56.4 3238s
 26692 11493   17.90705  166  131   18.10705   17.86054  1.36%  56.4 3240s
 26693 11494   17.90705  103  133   18.10705   17.86054  1.36%  56.4 3249s
 26694 11495   17.90705  132  134   18.10705   17.86070  1.36%  56.4 3252s
 26695 11495   18.00705  100  133   18.10705   17.86083  1.36%  56.4 3262s
 26696 11496   18.10705  168  137   18.10705   17.86090  1.36%  56.4 3265s
 26697 11497   17.90705  131  138   18.10705   17.86090  1.36%  56.4 3275s
 26699 11498   18.10705  150  131   18.10705   17.86133  1.36%  56.4 3289s
 26700 11499   17.90705   87  131   18.10705   17.86599  1.33%  56.4 3298s
 26701 11502   17.86599   37  123   18.10705   17.86599  1.33%  62.4 3336s
 26703 11503   17.87408   38   94   18.10705   17.87088  1.30%  62.4 3367s
 26707 11501   17.88599   39   99   18.10705   17.88205  1.24%  62.6 3391s
 26712 11502   17.88599   40   97   18.10705   17.88599  1.22%  62.7 3417s
 26723 11506   17.90705   42   65   18.10705   17.88778  1.21%  62.8 3423s
 26729 11501     cutoff   42        18.10705   17.90705  1.10%  62.8 3428s
 26735 11505   17.90705   43   27   18.10705   17.90705  1.10%  62.9 3438s
 26744 11505   17.90705   43   46   18.10705   17.90705  1.10%  63.0 3442s
 26763 11503   17.90705   45   33   18.10705   17.90705  1.10%  63.1 3447s
 26775 11504   17.90705   45   15   18.10705   17.90705  1.10%  63.2 3451s
 26807 11498   17.90705   50   15   18.10705   17.90705  1.10%  63.3 3457s
 26848 11498   17.90705   56   14   18.10705   17.90705  1.10%  63.3 3461s
 26869  7605   18.10705   59   20   18.10705   17.90705  1.10%  63.4 3465s
 26920  2409   17.90705   63   14   18.10705   17.90705  1.10%  63.4 3470s
 26989   362   18.10705   69    4   18.10705   17.90705  1.10%  63.4 3476s
 27053   107   18.10705   79    8   18.10705   17.90705  1.10%  63.4 3482s
 27086   119   17.90705   81    8   18.10705   17.90705  1.10%  63.4 3485s
 27127   126   17.90705   86    8   18.10705   17.90705  1.10%  63.3 3491s
 27169   133   18.10705   87    8   18.10705   17.90705  1.10%  63.3 3495s
 27249   188   18.10705   93    8   18.10705   17.90705  1.10%  63.4 3506s
 27320   287   17.97371   96    7   18.10705   17.90705  1.10%  63.4 3512s
 27484   421   18.00705   98   20   18.10705   17.90705  1.10%  63.1 3516s
 27674   568   18.00705  102    6   18.10705   17.90705  1.10%  62.8 3522s
 27878   776   18.00705  106    6   18.10705   17.90705  1.10%  62.4 3528s
 28111   999   18.00705  110    6   18.10705   17.90705  1.10%  61.9 3534s
 28350  1246   18.00705  114    8   18.10705   17.90705  1.10%  61.4 3540s
 28613  1534   18.02133  116   15   18.10705   17.90705  1.10%  60.9 3546s
 28920  1891   18.04038  119   36   18.10705   17.90705  1.10%  60.3 3552s
 29294  2356          -  121        18.10705   17.90705  1.10%  59.6 3560s
 29764  2894   18.04990  123   33   18.10705   17.90705  1.10%  58.7 3570s
 30325  3593   18.10705  126   40   18.10705   17.90705  1.10%  57.6 3579s
 31031  4418   18.10705  127   30   18.10705   17.90705  1.10%  56.3 3590s
 31858  5344   18.10705  129   30   18.10705   17.90705  1.10%  54.9 3603s
 32785  5912   18.10705  131    8   18.10705   17.90705  1.10%  53.3 3616s
 33140  5912          - 1326        18.10705   17.90705  1.10%  52.8 3621s
 33399  6482   18.10705  136    8   18.10705   17.90705  1.10%  52.4 3626s
 33766  6482          -  112        18.10705   17.90705  1.10%  51.8 3631s
 33993  7037   17.90705   93   19   18.10705   17.90705  1.10%  51.5 3638s
 34556  7612   17.90750   95   42   18.10705   17.90705  1.10%  50.7 3647s
 34951  7612 infeasible 1464        18.10705   17.90705  1.10%  50.1 3652s
 35182  8082   17.90824   98   37   18.10705   17.90705  1.10%  49.8 3659s
 35643  8082   17.91893   46   38   18.10705   17.90705  1.10%  49.2 3665s
 36328  9215   17.96859  103   33   18.10705   17.90705  1.10%  48.3 3680s
 36877  9854   18.00705  105   32   18.10705   17.90705  1.10%  47.7 3692s
 37535 10504   18.00705  108   30   18.10705   17.90705  1.10%  46.8 3706s
 38188 11193   18.00705  112   33   18.10705   17.90705  1.10%  46.1 3719s
 38899 11686 infeasible  729        18.10705   17.90705  1.10%  45.3 3732s
 39425 12114   17.93176   46   71   18.10705   17.90705  1.10%  44.8 3750s
 39865 12385 infeasible   48        18.10705   17.90705  1.10%  44.4 3760s
 40163 12616 infeasible 1359        18.10705   17.90705  1.10%  44.0 3769s
 40427 12664     cutoff   61        18.10705   17.90705  1.10%  43.8 3777s
 40535 12691   17.91893   49   53   18.10705   17.90705  1.10%  43.7 3781s
 40587 12722   18.10705   51    8   18.10705   17.90705  1.10%  43.8 3785s
 40633 12754   18.10705   54   12   18.10705   17.90705  1.10%  43.8 3790s
 40887 13066     cutoff  117        18.10705   17.90705  1.10%  43.7 3799s
 41204 13285   18.00705  125    9   18.10705   17.90705  1.10%  43.5 3808s
 41505 13596 infeasible 1462        18.10705   17.90705  1.10%  43.2 3816s

Cutting planes:
  Learned: 11
  Gomory: 283
  Cover: 178
  Implied bound: 2539
  Projected implied bound: 4
  Clique: 1546
  MIR: 208
  Flow cover: 3694
  GUB cover: 12
  Inf proof: 2
  Zero half: 298
  RLT: 529
  Relax-and-lift: 1178

Explored 41914 nodes (1913754 simplex iterations) in 3818.07 seconds
Thread count was 12 (of 12 available processors)

Solution count 100: 18.107 18.107 18.107 ... 18.107

Optimal solution found (tolerance 5.00e-02)
Best objective 1.810704692598e+01, best bound 1.790704692598e+01, gap 1.1045%

Wrote result file 'results_gurobi_1_1.sol'


Gurobi 9.0.0 (mac64, gurobi_cl) logging started Tue Nov  3 14:56:34 2020

Using license file /Users/zuck016/gurobi.lic
Set parameter TimeLimit to value 12000
Set parameter MIPGap to value 0.05
Set parameter TokenServer to value leghorn.emsl.pnl.gov
Set parameter LogFile to value gurobi.log
Set parameter PoolSolutions to value 100
Set parameter PoolSearchMode to value 2
Set parameter PoolGap to value 0.0001

Gurobi 9.0.0 (mac64, gurobi_cl) logging started Tue Nov  3 14:56:35 2020

Using license file /Users/zuck016/gurobi.lic
Set parameter TokenServer to value leghorn.emsl.pnl.gov
Set parameter LogFile to value gurobi.log
